TYPE : Vertex Cover
DIMENSION: 30
EDGE_DATA_SECTION:
0 7
0 8
0 18
0 20
0 22
0 25
0 29
1 7
1 12
1 17
1 22
1 26
2 5
2 6
2 9
2 16
2 18
3 9
3 13
3 17
4 6
4 16
4 17
4 18
4 23
5 16
5 20
5 26
5 29
6 20
6 26
6 29
7 13
7 15
7 22
7 23
7 26
7 28
8 9
8 19
8 20
8 23
8 26
8 28
9 10
9 11
9 16
9 22
9 28
10 14
10 15
10 18
10 23
10 25
11 29
13 20
14 25
14 27
14 28
15 16
15 17
15 21
15 23
15 28
15 29
16 18
16 29
17 26
19 20
21 24
22 23
22 25
22 28
25 26
26 29
-1
VERTEX_DEGREE:
7.0 5.0 5.0 3.0 5.0 5.0 5.0 8.0 7.0 8.0 6.0 2.0 1.0 3.0 4.0 8.0 7.0 5.0 5.0 2.0 6.0 2.0 7.0 6.0 1.0 5.0 8.0 1.0 6.0 7.0
VERTEX_COVER:
0 1 2 3 4 7 8 9 10 14 15 16 20 21 22 26 29
EOF
